46262.08,59.76,72.47
51501.88,53.68,65.1
54630.66,50.61,61.37
44688.65,61.86,75.02
40777.08,67.8,82.22
44084.4,62.71,76.05
57431.22,48.14,58.38
43808.46,63.11,76.53
46816.7,59.05,71.61
44921.96,61.54,74.63
55183.38,50.1,60.75
46434.06,59.54,72.2
47695.68,57.96,70.29
46406.52,59.57,72.24
53826.59,51.36,62.29
44209.49,62.53,75.83
49607.33,55.73,67.58
44977.07,61.47,74.54
43160.22,64.05,77.68
42821.64,64.56,78.29
